(set-info :smt-lib-version 2.6)
(set-logic QF_BV)
(set-info :status unsat)
(set-info :category "industrial")
(set-info :source |
  Generated using using the Low-Level Bounded Model Checker LLBMC.
  C files used in the paper: Florian Merz, Stephan Falke, Carsten Sinz: LLBMC: Bounded Model Checking of C and C++ Programs Using a Compiler IR. VSTTE 2012: 146-161
|)
(declare-fun nX_0x1a5a360 () (_ BitVec 32))
(assert
(let ((?x1 (_ bv0 32)))
(let ((?x2 (_ bv1 32)))
(let ((?x3 (_ bv2 32)))
(let ((?x4 (_ bv4 32)))
(let ((?x5 (_ bv8 32)))
(let ((?x6 (_ bv16 32)))
(let ((?x7 (_ bv32 32)))
(let ((?x8 (_ bv64 32)))
(let ((?x9 (_ bv128 32)))
(let ((?x10 (_ bv256 32)))
(let ((?x11 (_ bv512 32)))
(let ((?x12 (_ bv1024 32)))
(let ((?x13 (_ bv2048 32)))
(let ((?x14 (_ bv4096 32)))
(let ((?x15 (_ bv8192 32)))
(let ((?x16 (_ bv16384 32)))
(let ((?x17 (_ bv32768 32)))
(let ((?x18 (_ bv65535 32)))
(let ((?x19 (_ bv65536 32)))
(let ((?x20 (_ bv131072 32)))
(let ((?x21 (_ bv262144 32)))
(let ((?x22 (_ bv524288 32)))
(let ((?x23 (_ bv1048576 32)))
(let ((?x24 (_ bv2097152 32)))
(let ((?x25 (_ bv4194304 32)))
(let ((?x26 (_ bv8388608 32)))
(let ((?x27 (_ bv16711935 32)))
(let ((?x28 (_ bv16777216 32)))
(let ((?x29 (_ bv33554432 32)))
(let ((?x30 (_ bv67108864 32)))
(let ((?x31 (_ bv134217728 32)))
(let ((?x32 (_ bv252645135 32)))
(let ((?x33 (_ bv268435456 32)))
(let ((?x34 (_ bv536870912 32)))
(let ((?x35 (_ bv858993459 32)))
(let ((?x36 (_ bv1073741824 32)))
(let ((?x37 (_ bv1431655765 32)))
(let ((?x38 (_ bv2147483648 32)))
(let ((?x39 nX_0x1a5a360))
(let ((?x40 (bvand ?x39 ?x2)))
(let (($x41 (distinct ?x40 ?x1)))
(let ((?x42 (ite $x41 (_ bv1 1) (_ bv0 1))))
(let ((?x43 (bvand ?x39 ?x3)))
(let (($x44 (distinct ?x43 ?x1)))
(let ((?x45 (ite $x44 (_ bv1 1) (_ bv0 1))))
(let (($x46 (= ?x45 (_ bv1 1))))
(let ((?x47 (ite $x46 ?x2 ?x1)))
(let (($x48 (= ?x45 (_ bv1 1))))
(let ((?x49 (ite $x48 ?x3 ?x2)))
(let (($x50 (= ?x42 (_ bv1 1))))
(let ((?x51 (ite $x50 ?x49 ?x47)))
(let ((?x52 (bvand ?x39 ?x4)))
(let (($x53 (distinct ?x52 ?x1)))
(let ((?x54 (ite $x53 (_ bv1 1) (_ bv0 1))))
(let ((?x55 (bvadd ?x51 ?x2)))
(let (($x56 (= ?x54 (_ bv1 1))))
(let ((?x57 (ite $x56 ?x55 ?x51)))
(let ((?x58 (bvand ?x39 ?x5)))
(let (($x59 (distinct ?x58 ?x1)))
(let ((?x60 (ite $x59 (_ bv1 1) (_ bv0 1))))
(let ((?x61 (bvadd ?x57 ?x2)))
(let (($x62 (= ?x60 (_ bv1 1))))
(let ((?x63 (ite $x62 ?x61 ?x57)))
(let ((?x64 (bvand ?x39 ?x6)))
(let (($x65 (distinct ?x64 ?x1)))
(let ((?x66 (ite $x65 (_ bv1 1) (_ bv0 1))))
(let ((?x67 (bvadd ?x63 ?x2)))
(let (($x68 (= ?x66 (_ bv1 1))))
(let ((?x69 (ite $x68 ?x67 ?x63)))
(let ((?x70 (bvand ?x39 ?x7)))
(let (($x71 (distinct ?x70 ?x1)))
(let ((?x72 (ite $x71 (_ bv1 1) (_ bv0 1))))
(let ((?x73 (bvadd ?x69 ?x2)))
(let (($x74 (= ?x72 (_ bv1 1))))
(let ((?x75 (ite $x74 ?x73 ?x69)))
(let ((?x76 (bvand ?x39 ?x8)))
(let (($x77 (distinct ?x76 ?x1)))
(let ((?x78 (ite $x77 (_ bv1 1) (_ bv0 1))))
(let ((?x79 (bvadd ?x75 ?x2)))
(let (($x80 (= ?x78 (_ bv1 1))))
(let ((?x81 (ite $x80 ?x79 ?x75)))
(let ((?x82 (bvand ?x39 ?x9)))
(let (($x83 (distinct ?x82 ?x1)))
(let ((?x84 (ite $x83 (_ bv1 1) (_ bv0 1))))
(let ((?x85 (bvadd ?x81 ?x2)))
(let (($x86 (= ?x84 (_ bv1 1))))
(let ((?x87 (ite $x86 ?x85 ?x81)))
(let ((?x88 (bvand ?x39 ?x10)))
(let (($x89 (distinct ?x88 ?x1)))
(let ((?x90 (ite $x89 (_ bv1 1) (_ bv0 1))))
(let ((?x91 (bvadd ?x87 ?x2)))
(let (($x92 (= ?x90 (_ bv1 1))))
(let ((?x93 (ite $x92 ?x91 ?x87)))
(let ((?x94 (bvand ?x39 ?x11)))
(let (($x95 (distinct ?x94 ?x1)))
(let ((?x96 (ite $x95 (_ bv1 1) (_ bv0 1))))
(let ((?x97 (bvadd ?x93 ?x2)))
(let (($x98 (= ?x96 (_ bv1 1))))
(let ((?x99 (ite $x98 ?x97 ?x93)))
(let ((?x100 (bvand ?x39 ?x12)))
(let (($x101 (distinct ?x100 ?x1)))
(let ((?x102 (ite $x101 (_ bv1 1) (_ bv0 1))))
(let ((?x103 (bvadd ?x99 ?x2)))
(let (($x104 (= ?x102 (_ bv1 1))))
(let ((?x105 (ite $x104 ?x103 ?x99)))
(let ((?x106 (bvand ?x39 ?x13)))
(let (($x107 (distinct ?x106 ?x1)))
(let ((?x108 (ite $x107 (_ bv1 1) (_ bv0 1))))
(let ((?x109 (bvadd ?x105 ?x2)))
(let (($x110 (= ?x108 (_ bv1 1))))
(let ((?x111 (ite $x110 ?x109 ?x105)))
(let ((?x112 (bvand ?x39 ?x14)))
(let (($x113 (distinct ?x112 ?x1)))
(let ((?x114 (ite $x113 (_ bv1 1) (_ bv0 1))))
(let ((?x115 (bvadd ?x111 ?x2)))
(let (($x116 (= ?x114 (_ bv1 1))))
(let ((?x117 (ite $x116 ?x115 ?x111)))
(let ((?x118 (bvand ?x39 ?x15)))
(let (($x119 (distinct ?x118 ?x1)))
(let ((?x120 (ite $x119 (_ bv1 1) (_ bv0 1))))
(let ((?x121 (bvadd ?x117 ?x2)))
(let (($x122 (= ?x120 (_ bv1 1))))
(let ((?x123 (ite $x122 ?x121 ?x117)))
(let ((?x124 (bvand ?x39 ?x16)))
(let (($x125 (distinct ?x124 ?x1)))
(let ((?x126 (ite $x125 (_ bv1 1) (_ bv0 1))))
(let ((?x127 (bvadd ?x123 ?x2)))
(let (($x128 (= ?x126 (_ bv1 1))))
(let ((?x129 (ite $x128 ?x127 ?x123)))
(let ((?x130 (bvand ?x39 ?x17)))
(let (($x131 (distinct ?x130 ?x1)))
(let ((?x132 (ite $x131 (_ bv1 1) (_ bv0 1))))
(let ((?x133 (bvadd ?x129 ?x2)))
(let (($x134 (= ?x132 (_ bv1 1))))
(let ((?x135 (ite $x134 ?x133 ?x129)))
(let ((?x136 (bvand ?x39 ?x19)))
(let (($x137 (distinct ?x136 ?x1)))
(let ((?x138 (ite $x137 (_ bv1 1) (_ bv0 1))))
(let ((?x139 (bvadd ?x135 ?x2)))
(let (($x140 (= ?x138 (_ bv1 1))))
(let ((?x141 (ite $x140 ?x139 ?x135)))
(let ((?x142 (bvand ?x39 ?x20)))
(let (($x143 (distinct ?x142 ?x1)))
(let ((?x144 (ite $x143 (_ bv1 1) (_ bv0 1))))
(let ((?x145 (bvadd ?x141 ?x2)))
(let (($x146 (= ?x144 (_ bv1 1))))
(let ((?x147 (ite $x146 ?x145 ?x141)))
(let ((?x148 (bvand ?x39 ?x21)))
(let (($x149 (distinct ?x148 ?x1)))
(let ((?x150 (ite $x149 (_ bv1 1) (_ bv0 1))))
(let ((?x151 (bvadd ?x147 ?x2)))
(let (($x152 (= ?x150 (_ bv1 1))))
(let ((?x153 (ite $x152 ?x151 ?x147)))
(let ((?x154 (bvand ?x39 ?x22)))
(let (($x155 (distinct ?x154 ?x1)))
(let ((?x156 (ite $x155 (_ bv1 1) (_ bv0 1))))
(let ((?x157 (bvadd ?x153 ?x2)))
(let (($x158 (= ?x156 (_ bv1 1))))
(let ((?x159 (ite $x158 ?x157 ?x153)))
(let ((?x160 (bvand ?x39 ?x23)))
(let (($x161 (distinct ?x160 ?x1)))
(let ((?x162 (ite $x161 (_ bv1 1) (_ bv0 1))))
(let ((?x163 (bvadd ?x159 ?x2)))
(let (($x164 (= ?x162 (_ bv1 1))))
(let ((?x165 (ite $x164 ?x163 ?x159)))
(let ((?x166 (bvand ?x39 ?x24)))
(let (($x167 (distinct ?x166 ?x1)))
(let ((?x168 (ite $x167 (_ bv1 1) (_ bv0 1))))
(let ((?x169 (bvadd ?x165 ?x2)))
(let (($x170 (= ?x168 (_ bv1 1))))
(let ((?x171 (ite $x170 ?x169 ?x165)))
(let ((?x172 (bvand ?x39 ?x25)))
(let (($x173 (distinct ?x172 ?x1)))
(let ((?x174 (ite $x173 (_ bv1 1) (_ bv0 1))))
(let ((?x175 (bvadd ?x171 ?x2)))
(let (($x176 (= ?x174 (_ bv1 1))))
(let ((?x177 (ite $x176 ?x175 ?x171)))
(let ((?x178 (bvand ?x39 ?x26)))
(let (($x179 (distinct ?x178 ?x1)))
(let ((?x180 (ite $x179 (_ bv1 1) (_ bv0 1))))
(let ((?x181 (bvadd ?x177 ?x2)))
(let (($x182 (= ?x180 (_ bv1 1))))
(let ((?x183 (ite $x182 ?x181 ?x177)))
(let ((?x184 (bvand ?x39 ?x28)))
(let (($x185 (distinct ?x184 ?x1)))
(let ((?x186 (ite $x185 (_ bv1 1) (_ bv0 1))))
(let ((?x187 (bvadd ?x183 ?x2)))
(let (($x188 (= ?x186 (_ bv1 1))))
(let ((?x189 (ite $x188 ?x187 ?x183)))
(let ((?x190 (bvand ?x39 ?x29)))
(let (($x191 (distinct ?x190 ?x1)))
(let ((?x192 (ite $x191 (_ bv1 1) (_ bv0 1))))
(let ((?x193 (bvadd ?x189 ?x2)))
(let (($x194 (= ?x192 (_ bv1 1))))
(let ((?x195 (ite $x194 ?x193 ?x189)))
(let ((?x196 (bvand ?x39 ?x30)))
(let (($x197 (distinct ?x196 ?x1)))
(let ((?x198 (ite $x197 (_ bv1 1) (_ bv0 1))))
(let ((?x199 (bvadd ?x195 ?x2)))
(let (($x200 (= ?x198 (_ bv1 1))))
(let ((?x201 (ite $x200 ?x199 ?x195)))
(let ((?x202 (bvand ?x39 ?x31)))
(let (($x203 (distinct ?x202 ?x1)))
(let ((?x204 (ite $x203 (_ bv1 1) (_ bv0 1))))
(let ((?x205 (bvadd ?x201 ?x2)))
(let (($x206 (= ?x204 (_ bv1 1))))
(let ((?x207 (ite $x206 ?x205 ?x201)))
(let ((?x208 (bvand ?x39 ?x33)))
(let (($x209 (distinct ?x208 ?x1)))
(let ((?x210 (ite $x209 (_ bv1 1) (_ bv0 1))))
(let ((?x211 (bvadd ?x207 ?x2)))
(let (($x212 (= ?x210 (_ bv1 1))))
(let ((?x213 (ite $x212 ?x211 ?x207)))
(let ((?x214 (bvand ?x39 ?x34)))
(let (($x215 (distinct ?x214 ?x1)))
(let ((?x216 (ite $x215 (_ bv1 1) (_ bv0 1))))
(let ((?x217 (bvadd ?x213 ?x2)))
(let (($x218 (= ?x216 (_ bv1 1))))
(let ((?x219 (ite $x218 ?x217 ?x213)))
(let ((?x220 (bvand ?x39 ?x36)))
(let (($x221 (distinct ?x220 ?x1)))
(let ((?x222 (ite $x221 (_ bv1 1) (_ bv0 1))))
(let ((?x223 (bvadd ?x219 ?x2)))
(let (($x224 (= ?x222 (_ bv1 1))))
(let ((?x225 (ite $x224 ?x223 ?x219)))
(let ((?x226 (bvand ?x39 ?x38)))
(let (($x227 (distinct ?x226 ?x1)))
(let ((?x228 (ite $x227 (_ bv1 1) (_ bv0 1))))
(let ((?x229 (bvadd ?x225 ?x2)))
(let (($x230 (= ?x228 (_ bv1 1))))
(let ((?x231 (ite $x230 ?x229 ?x225)))
(let ((?x232 (bvand ?x39 ?x37)))
(let ((?x233 ((_ extract 4 0) ?x2)))
(let ((?x234 ((_ zero_extend 27) ?x233)))
(let ((?x235 (bvlshr ?x39 ?x234)))
(let ((?x236 (bvand ?x235 ?x37)))
(let ((?x237 (bvadd ?x232 ?x236)))
(let ((?x238 (bvand ?x237 ?x35)))
(let ((?x239 ((_ extract 4 0) ?x3)))
(let ((?x240 ((_ zero_extend 27) ?x239)))
(let ((?x241 (bvlshr ?x237 ?x240)))
(let ((?x242 (bvand ?x241 ?x35)))
(let ((?x243 (bvadd ?x238 ?x242)))
(let ((?x244 (bvand ?x243 ?x32)))
(let ((?x245 ((_ extract 4 0) ?x4)))
(let ((?x246 ((_ zero_extend 27) ?x245)))
(let ((?x247 (bvlshr ?x243 ?x246)))
(let ((?x248 (bvand ?x247 ?x32)))
(let ((?x249 (bvadd ?x244 ?x248)))
(let ((?x250 (bvand ?x249 ?x27)))
(let ((?x251 ((_ extract 4 0) ?x5)))
(let ((?x252 ((_ zero_extend 27) ?x251)))
(let ((?x253 (bvlshr ?x249 ?x252)))
(let ((?x254 (bvand ?x253 ?x27)))
(let ((?x255 (bvadd ?x250 ?x254)))
(let ((?x256 (bvand ?x255 ?x18)))
(let ((?x257 ((_ extract 4 0) ?x6)))
(let ((?x258 ((_ zero_extend 27) ?x257)))
(let ((?x259 (bvlshr ?x255 ?x258)))
(let ((?x260 (bvand ?x259 ?x18)))
(let ((?x261 (bvadd ?x256 ?x260)))
(let (($x262 (= ?x231 ?x261)))
(let (($x263 (not $x262)))
$x263
)))))))))))))))))))))))))))))))))))))))))))))))))))))))))))))))))))))))))))))))))))))))))))))))))))))))))))))))))))))))))))))))))))))))))))))))))))))))))))))))))))))))))))))))))))))))))))))))))))))))))))))))))))))))))))))))))))))))))))))))))))))))))))))))))))))))
)
(check-sat)
(exit)
